outputs/case_224.model.txt
credit_card_or_cash_card_annual_interest_rate = 20
derivative_business_internal_procedures_set = True
money_market_or_credit_card_permit_granted = True
internal_operation_executed = True
money_market_or_credit_card_permit = True
internal_handling_established = True
violation_129_7 = False
internal_handling_compliance = True
internal_operation_compliance = True
internal_control_executed = True
penalty = False
internal_operation_established = True
internal_control_compliance = True
internal_handling_executed = True
internal_control_established = True
derivative_business_compliance = True
credit_card_interest_rate_limit = 0